# Cost: 268

# Tail Head Net
31 11 1
51 31 1
71 51 1
91 71 1
111 91 1
131 111 1
151 131 1
171 151 1
191 171 1
255 655 1
256 255 1
257 256 1
258 257 1
259 258 1
260 259 1
591 191 1
611 591 1
631 611 1
650 670 1
651 631 1
651 650 1
652 651 1
653 652 1
654 653 1
655 654 1
661 681 1
662 661 1
663 662 1
664 663 1
665 664 1
666 665 1
667 666 1
668 667 1
669 668 1
670 669 1
681 281 1
40 20 2
60 40 2
80 60 2
100 80 2
120 100 2
280 680 2
520 120 2
540 520 2
560 540 2
580 560 2
600 580 2
620 600 2
640 620 2
660 640 2
680 660 2
27 7 3
47 27 3
67 47 3
87 67 3
107 87 3
127 107 3
135 155 3
136 135 3
137 136 3
138 137 3
139 138 3
140 139 3
147 127 3
152 172 3
153 152 3
154 153 3
155 154 3
172 572 3
248 268 3
268 288 3
288 308 3
308 328 3
328 348 3
348 368 3
368 388 3
547 147 3
567 547 3
568 567 3
568 588 3
569 568 3
570 569 3
571 570 3
572 571 3
588 608 3
608 628 3
628 648 3
648 248 3
201 181 4
221 201 4
221 621 4
243 263 4
263 283 4
283 303 4
303 323 4
323 343 4
343 363 4
363 383 4
621 622 4
622 623 4
623 643 4
643 243 4
34 14 5
54 34 5
74 54 5
82 102 5
83 82 5
94 74 5
102 101 5
358 758 5
359 358 5
360 359 5
483 83 5
484 483 5
485 484 5
486 485 5
487 486 5
488 487 5
489 488 5
490 489 5
491 490 5
492 491 5
493 492 5
494 94 5
494 493 5
514 494 5
515 514 5
535 515 5
536 535 5
556 536 5
576 556 5
596 576 5
616 596 5
636 616 5
656 636 5
676 656 5
696 676 5
697 696 5
717 697 5
737 717 5
757 737 5
758 757 5
317 318 6
318 319 6
319 320 6
337 317 6
357 337 6
376 377 6
377 357 6
395 396 6
396 376 6
2 3 7
3 23 7
23 43 7
43 44 7
44 45 7
45 65 7
65 85 7
85 105 7
105 125 7
125 145 7
145 165 7
165 185 7
185 205 7
198 199 7
199 200 7
205 206 7
206 207 7
207 208 7
207 227 7
208 209 7
209 210 7
210 211 7
211 212 7
212 213 7
213 214 7
214 215 7
215 216 7
216 217 7
217 218 7
218 198 7
227 247 7
247 267 7
267 287 7
287 307 7
307 327 7
327 347 7
347 367 7
367 387 7
161 141 8
162 161 8
182 162 8
202 182 8
222 202 8
242 222 8
262 242 8
282 262 8
302 282 8
322 302 8
342 322 8
362 342 8
381 382 8
382 362 8
382 782 8
389 390 8
390 391 8
782 783 8
783 784 8
784 785 8
785 786 8
786 787 8
787 788 8
788 789 8
789 389 8
338 738 9
339 338 9
340 339 9
405 5 9
406 405 9
407 406 9
408 407 9
409 408 9
410 409 9
411 410 9
412 411 9
432 412 9
433 432 9
453 433 9
454 453 9
455 454 9
475 455 9
476 475 9
477 476 9
497 477 9
498 497 9
518 498 9
538 518 9
558 538 9
578 558 9
598 578 9
618 598 9
638 618 9
658 638 9
678 658 9
698 678 9
718 698 9
738 718 9
61 41 10
62 61 10
63 62 10
64 63 10
84 64 10
104 84 10
124 104 10
144 124 10
164 144 10
184 164 10
204 184 10
224 204 10
244 224 10
264 244 10
284 264 10
304 284 10
324 304 10
344 324 10
364 344 10
384 364 10
341 321 11
